
&GLOBAL
  PROJECT C
  PROGRAM_NAME ATOM
&END GLOBAL
&ATOM
  ELEMENT C
  ELECTRON_CONFIGURATION CORE 2s2 2p2
  CORE [He]
  &METHOD
     METHOD_TYPE  KOHN-SHAM
     &XC
       &XC_FUNCTIONAL PBE
       &END XC_FUNCTIONAL
     &END XC
  &END METHOD
  &PRINT
    &ANALYZE_BASIS
         OVERLAP_CONDITION_NUMBER T
         COMPLETENESS T
    &END ANALYZE_BASIS
    &UPF_FILE
       FILENAME ./C-GTH-PBE-q4
    &END
  &END
  &PP_BASIS
     BASIS_TYPE GEOMETRICAL_GTO
     QUADRATURE GC_LOG
     GRID_POINTS 500
  &END PP_BASIS
  &POTENTIAL
    PSEUDO_TYPE GTH
    &GTH_POTENTIAL
        2    2
     0.33847124    2    -8.80367398     1.33921085
    2
     0.30257575    1     9.62248665
     0.29150694    0

    &END
  &END POTENTIAL
&END ATOM
